language Essence 1.3

letting blksize_delta be function(1 --> 3, 2 --> 2, 3 --> 3, 4 --> 4)
letting maxcars be function(1 --> 10, 2 --> 10, 3 --> 10, 4 --> 10)
letting n_cars be 268
letting n_classes be 157
letting n_options be 4
letting quantity be
        function(1 --> 101, 2 --> 3, 3 --> 7, 4 --> 1, 5 --> 1, 6 --> 2, 7 --> 2, 8 --> 1, 9 --> 2, 10 --> 1, 11 --> 1,
                 12 --> 1, 13 --> 1, 14 --> 1, 15 --> 1, 16 --> 1, 17 --> 1, 18 --> 1, 19 --> 1, 20 --> 1, 21 --> 1,
                 22 --> 1, 23 --> 1, 24 --> 1, 25 --> 1, 26 --> 1, 27 --> 1, 28 --> 1, 29 --> 1, 30 --> 1, 31 --> 1,
                 32 --> 1, 33 --> 1, 34 --> 1, 35 --> 1, 36 --> 1, 37 --> 1, 38 --> 1, 39 --> 1, 40 --> 1, 41 --> 1,
                 42 --> 1, 43 --> 1, 44 --> 1, 45 --> 1, 46 --> 1, 47 --> 1, 48 --> 1, 49 --> 1, 50 --> 1, 51 --> 1,
                 52 --> 1, 53 --> 1, 54 --> 1, 55 --> 1, 56 --> 1, 57 --> 1, 58 --> 1, 59 --> 1, 60 --> 1, 61 --> 1,
                 62 --> 1, 63 --> 1, 64 --> 1, 65 --> 1, 66 --> 1, 67 --> 1, 68 --> 1, 69 --> 1, 70 --> 1, 71 --> 1,
                 72 --> 1, 73 --> 1, 74 --> 1, 75 --> 1, 76 --> 1, 77 --> 1, 78 --> 1, 79 --> 1, 80 --> 1, 81 --> 1,
                 82 --> 1, 83 --> 1, 84 --> 1, 85 --> 1, 86 --> 1, 87 --> 1, 88 --> 1, 89 --> 1, 90 --> 1, 91 --> 1,
                 92 --> 1, 93 --> 1, 94 --> 1, 95 --> 1, 96 --> 1, 97 --> 1, 98 --> 1, 99 --> 1, 100 --> 1, 101 --> 1,
                 102 --> 1, 103 --> 1, 104 --> 1, 105 --> 1, 106 --> 1, 107 --> 1, 108 --> 1, 109 --> 1, 110 --> 1,
                 111 --> 1, 112 --> 1, 113 --> 1, 114 --> 1, 115 --> 1, 116 --> 1, 117 --> 1, 118 --> 1, 119 --> 1,
                 120 --> 1, 121 --> 1, 122 --> 1, 123 --> 1, 124 --> 1, 125 --> 1, 126 --> 1, 127 --> 1, 128 --> 1,
                 129 --> 1, 130 --> 1, 131 --> 1, 132 --> 1, 133 --> 1, 134 --> 1, 135 --> 1, 136 --> 1, 137 --> 1,
                 138 --> 1, 139 --> 1, 140 --> 1, 141 --> 1, 142 --> 1, 143 --> 1, 144 --> 1, 145 --> 1, 146 --> 1,
                 147 --> 1, 148 --> 1, 149 --> 1, 150 --> 1, 151 --> 1, 152 --> 1, 153 --> 1, 154 --> 1, 155 --> 1,
                 156 --> 1, 157 --> 1)
letting usage be
        relation((1, 1), (1, 2), (2, 1), (3, 3), (3, 4), (4, 2), (5, 1), (5, 3), (5, 4), (6, 2), (6, 4), (7, 2), (7, 3),
                 (7, 4), (8, 2), (9, 1), (9, 4), (10, 1), (10, 2), (11, 2), (12, 1), (12, 2), (13, 2), (13, 3), (14, 2),
                 (14, 4), (15, 4), (16, 1), (16, 3), (16, 4), (17, 2), (17, 3), (18, 3), (19, 1), (19, 2), (20, 4),
                 (21, 1), (21, 4), (22, 4), (23, 4), (24, 1), (24, 2), (24, 3), (24, 4), (25, 1), (25, 3), (25, 4),
                 (26, 1), (26, 2), (26, 3), (27, 3), (28, 2), (28, 3), (28, 4), (29, 2), (29, 3), (30, 4), (31, 1),
                 (31, 2), (31, 3), (32, 1), (32, 2), (32, 4), (33, 4), (34, 1), (34, 2), (34, 4), (35, 4), (36, 2),
                 (37, 3), (38, 2), (39, 2), (39, 4), (40, 1), (40, 4), (41, 1), (41, 2), (42, 4), (43, 3), (43, 4),
                 (44, 1), (44, 4), (45, 1), (45, 3), (45, 4), (46, 1), (46, 2), (46, 3), (47, 2), (47, 4), (48, 4),
                 (49, 2), (49, 4), (50, 3), (51, 1), (52, 1), (52, 3), (52, 4), (53, 4), (54, 3), (55, 1), (55, 2),
                 (55, 3), (56, 2), (57, 4), (58, 1), (59, 1), (59, 3), (60, 2), (60, 4), (61, 3), (62, 2), (63, 1),
                 (63, 4), (64, 3), (65, 1), (65, 4), (66, 3), (67, 1), (68, 1), (68, 3), (68, 4), (69, 1), (69, 2),
                 (69, 4), (70, 2), (70, 3), (70, 4), (71, 2), (71, 3), (71, 4), (72, 1), (72, 2), (72, 4), (73, 3),
                 (73, 4), (74, 2), (74, 4), (75, 3), (75, 4), (76, 4), (77, 2), (78, 2), (78, 3), (78, 4), (79, 1),
                 (79, 4), (80, 1), (80, 2), (80, 3), (81, 1), (81, 3), (81, 4), (82, 1), (82, 2), (82, 4), (83, 3),
                 (84, 1), (84, 4), (85, 2), (85, 4), (86, 1), (86, 3), (87, 4), (88, 2), (88, 3), (88, 4), (89, 1),
                 (89, 3), (89, 4), (90, 1), (90, 3), (90, 4), (91, 2), (91, 4), (92, 2), (92, 4), (93, 1), (93, 2),
                 (93, 4), (94, 4), (95, 1), (95, 4), (96, 1), (96, 2), (96, 4), (97, 4), (98, 1), (98, 3), (98, 4),
                 (99, 2), (99, 4), (100, 1), (100, 2), (100, 4), (101, 1), (101, 4), (102, 1), (102, 3), (102, 4),
                 (103, 1), (103, 3), (103, 4), (104, 4), (105, 4), (106, 2), (106, 3), (106, 4), (107, 1), (107, 4),
                 (108, 3), (108, 4), (109, 1), (109, 2), (109, 4), (110, 1), (110, 4), (111, 2), (111, 3), (111, 4),
                 (112, 4), (113, 3), (113, 4), (114, 1), (114, 2), (114, 4), (115, 4), (116, 4), (117, 1), (117, 2),
                 (117, 3), (117, 4), (118, 1), (118, 4), (119, 2), (119, 3), (119, 4), (120, 3), (120, 4), (121, 4),
                 (122, 4), (123, 1), (123, 3), (123, 4), (124, 1), (124, 4), (125, 2), (125, 4), (126, 2), (126, 4),
                 (127, 3), (127, 4), (128, 2), (128, 4), (129, 1), (129, 3), (129, 4), (130, 2), (130, 4), (131, 4),
                 (132, 1), (132, 2), (132, 3), (132, 4), (133, 3), (133, 4), (134, 2), (134, 3), (134, 4), (135, 1),
                 (135, 4), (136, 3), (136, 4), (137, 1), (137, 4), (138, 1), (138, 4), (139, 2), (139, 3), (139, 4),
                 (140, 1), (140, 4), (141, 1), (141, 2), (141, 3), (141, 4), (142, 4), (143, 2), (143, 3), (143, 4),
                 (144, 2), (144, 3), (144, 4), (145, 2), (145, 4), (146, 1), (146, 4), (147, 4), (148, 3), (148, 4),
                 (149, 2), (149, 4), (150, 4), (151, 1), (151, 4), (152, 4), (153, 1), (153, 4), (154, 4), (155, 1),
                 (155, 4), (156, 2), (156, 3), (156, 4), (157, 1), (157, 2), (157, 3))
$ Visualisation for usage
$   1   1
$   1   2
$   2   1
$   3   3
$   3   4
$   4   2
$   5   1
$   5   3
$   5   4
$   6   2
$   6   4
$   7   2
$   7   3
$   7   4
$   8   2
$   9   1
$   9   4
$  10   1
$  10   2
$  11   2
$  12   1
$  12   2
$  13   2
$  13   3
$  14   2
$  14   4
$  15   4
$  16   1
$  16   3
$  16   4
$  17   2
$  17   3
$  18   3
$  19   1
$  19   2
$  20   4
$  21   1
$  21   4
$  22   4
$  23   4
$  24   1
$  24   2
$  24   3
$  24   4
$  25   1
$  25   3
$  25   4
$  26   1
$  26   2
$  26   3
$  27   3
$  28   2
$  28   3
$  28   4
$  29   2
$  29   3
$  30   4
$  31   1
$  31   2
$  31   3
$  32   1
$  32   2
$  32   4
$  33   4
$  34   1
$  34   2
$  34   4
$  35   4
$  36   2
$  37   3
$  38   2
$  39   2
$  39   4
$  40   1
$  40   4
$  41   1
$  41   2
$  42   4
$  43   3
$  43   4
$  44   1
$  44   4
$  45   1
$  45   3
$  45   4
$  46   1
$  46   2
$  46   3
$  47   2
$  47   4
$  48   4
$  49   2
$  49   4
$  50   3
$  51   1
$  52   1
$  52   3
$  52   4
$  53   4
$  54   3
$  55   1
$  55   2
$  55   3
$  56   2
$  57   4
$  58   1
$  59   1
$  59   3
$  60   2
$  60   4
$  61   3
$  62   2
$  63   1
$  63   4
$  64   3
$  65   1
$  65   4
$  66   3
$  67   1
$  68   1
$  68   3
$  68   4
$  69   1
$  69   2
$  69   4
$  70   2
$  70   3
$  70   4
$  71   2
$  71   3
$  71   4
$  72   1
$  72   2
$  72   4
$  73   3
$  73   4
$  74   2
$  74   4
$  75   3
$  75   4
$  76   4
$  77   2
$  78   2
$  78   3
$  78   4
$  79   1
$  79   4
$  80   1
$  80   2
$  80   3
$  81   1
$  81   3
$  81   4
$  82   1
$  82   2
$  82   4
$  83   3
$  84   1
$  84   4
$  85   2
$  85   4
$  86   1
$  86   3
$  87   4
$  88   2
$  88   3
$  88   4
$  89   1
$  89   3
$  89   4
$  90   1
$  90   3
$  90   4
$  91   2
$  91   4
$  92   2
$  92   4
$  93   1
$  93   2
$  93   4
$  94   4
$  95   1
$  95   4
$  96   1
$  96   2
$  96   4
$  97   4
$  98   1
$  98   3
$  98   4
$  99   2
$  99   4
$ 100   1
$ 100   2
$ 100   4
$ 101   1
$ 101   4
$ 102   1
$ 102   3
$ 102   4
$ 103   1
$ 103   3
$ 103   4
$ 104   4
$ 105   4
$ 106   2
$ 106   3
$ 106   4
$ 107   1
$ 107   4
$ 108   3
$ 108   4
$ 109   1
$ 109   2
$ 109   4
$ 110   1
$ 110   4
$ 111   2
$ 111   3
$ 111   4
$ 112   4
$ 113   3
$ 113   4
$ 114   1
$ 114   2
$ 114   4
$ 115   4
$ 116   4
$ 117   1
$ 117   2
$ 117   3
$ 117   4
$ 118   1
$ 118   4
$ 119   2
$ 119   3
$ 119   4
$ 120   3
$ 120   4
$ 121   4
$ 122   4
$ 123   1
$ 123   3
$ 123   4
$ 124   1
$ 124   4
$ 125   2
$ 125   4
$ 126   2
$ 126   4
$ 127   3
$ 127   4
$ 128   2
$ 128   4
$ 129   1
$ 129   3
$ 129   4
$ 130   2
$ 130   4
$ 131   4
$ 132   1
$ 132   2
$ 132   3
$ 132   4
$ 133   3
$ 133   4
$ 134   2
$ 134   3
$ 134   4
$ 135   1
$ 135   4
$ 136   3
$ 136   4
$ 137   1
$ 137   4
$ 138   1
$ 138   4
$ 139   2
$ 139   3
$ 139   4
$ 140   1
$ 140   4
$ 141   1
$ 141   2
$ 141   3
$ 141   4
$ 142   4
$ 143   2
$ 143   3
$ 143   4
$ 144   2
$ 144   3
$ 144   4
$ 145   2
$ 145   4
$ 146   1
$ 146   4
$ 147   4
$ 148   3
$ 148   4
$ 149   2
$ 149   4
$ 150   4
$ 151   1
$ 151   4
$ 152   4
$ 153   1
$ 153   4
$ 154   4
$ 155   1
$ 155   4
$ 156   2
$ 156   3
$ 156   4
$ 157   1
$ 157   2
$ 157   3

